nNurses = 193;
nHours = 34;
minHours = 5;
maxHours = 8;
maxConsec = 7;
maxPresence = 7;
demand = [7, 10, 13, 10, 11, 12, 12, 14, 16, 12, 12, 13, 13, 8, 12, 9, 8, 10, 8, 6, 10, 6, 7, 8, 11, 10, 9, 9, 8, 13, 8, 13, 8, 12];
